c colouring generated by benchmark framework
p edge 96 1368
v 1 8
v 2 10
v 3 6
v 4 1
v 5 5
v 6 4
v 7 9
v 8 2
v 9 0
v 10 3
v 11 7
v 12 12
v 13 11
v 14 9
v 15 4
v 16 7
v 17 6
v 18 0
v 19 3
v 20 8
v 21 10
v 22 1
v 23 5
v 24 13
v 25 0
v 26 8
v 27 13
v 28 14
v 29 1
v 30 5
v 31 7
v 32 9
v 33 2
v 34 4
v 35 12
v 36 10
v 37 10
v 38 3
v 39 5
v 40 2
v 41 12
v 42 14
v 43 0
v 44 13
v 45 1
v 46 11
v 47 6
v 48 4
v 49 9
v 50 12
v 51 10
v 52 0
v 53 4
v 54 13
v 55 8
v 56 11
v 57 14
v 58 2
v 59 1
v 60 3
v 61 7
v 62 4
v 63 1
v 64 9
v 65 2
v 66 12
v 67 6
v 68 0
v 69 3
v 70 8
v 71 10
v 72 5
v 73 12
v 74 6
v 75 2
v 76 4
v 77 11
v 78 3
v 79 5
v 80 1
v 81 13
v 82 7
v 83 9
v 84 0
v 85 13
v 86 1
v 87 12
v 88 6
v 89 0
v 90 2
v 91 4
v 92 3
v 93 5
v 94 10
v 95 8
v 96 11
